m = 7;
n = 10;
map = [|0,1,1,0,0,0,0,0,0,0
            |0,0,1,0,0,0,0,0,0,0
            |0,0,1,0,0,0,0,1,1,1
            |0,0,1,0,1,1,0,1,1,0
            |0,0,1,0,1,1,0,1,1,0
            |0,0,1,0,1,0,0,1,1,0                                        
            |0,0,0,0,0,0,0,0,0,0|];                                                                                                                                                                             
cX = 0; %vertical
cY = 0; %horizontal
tX = 6; %vertical
tY = 3; %horizontal                                                                         
steps = 18;